9249
8005
3651
9217
5589
466
1457
10023
5316
8891
1739
1753
4394
5327
8601
3739
9402
4629
1500
10105
6511
1508
9072
5275
6344
2661
992
2907
8244
8459
8004
2316
5812
1910
754
8222
7159
8895
3725
8599
6760
2561
7222
8395
2864
10160
1860
8899
5060
3499
2987
